CPXPARAM_MIP_Strategy_HeuristicFreq#P37#0#2.918822#0.625098
CPXPARAM_MIP_Strategy_HeuristicFreq#P37#20#2.850022#0.610363
CPXPARAM_MIP_Strategy_HeuristicFreq#P37#40#3.712528#0.795079
CPXPARAM_MIP_Strategy_HeuristicFreq#P37#100#4.669384#1.000000
CPXPARAM_MIP_Strategy_HeuristicFreq#P37#500#3.712608#0.795096
CPXPARAM_MIP_Strategy_HeuristicFreq#P37#1000#3.712562#0.795086
